(set-logic BV) (define-fun origCir ((n120 Bool) (n325 Bool) (n254 Bool) (n207 Bool) (i38 Bool)) Bool (xor (and (xor n325 (not (and n254 n207))) n120) i38)) (synth-fun skel ((n120 Bool) (n325 Bool) (n254 Bool) (n207 Bool) (i38 Bool)) Bool) (declare-var n120 Bool) (declare-var n325 Bool) (declare-var n254 Bool) (declare-var n207 Bool) (declare-var i38 Bool) (constraint (= (origCir n120 n325 n254 n207 i38) (skel n120 n325 n254 n207 i38))) (check-synth)
